%int: n; % Número de días
%int: m; % Número de clientes
%array[1..n, 1..m] of int: demand; % Demanda diaria por cliente y día
%array[1..3] of int: costs; % Costos de producción (N, H, T)
%array[1..3] of int: capacities; % Capacidad diaria (N, H, T)
%array[1..m] of int: Ps; % Pago individual por cliente por MW
%float: min_demand_percentage = 0.50; % Porcentaje mínimo de demanda a cubrir
%float: hydro_max_percentage = 0.80; % Porcentaje máximo de capacidad para hidroeléctrica
%int: hydro_max_consecutive_days = 1; % Días consecutivos máximos a ese porcentaje


% Número de días
n = 6;

% Número de clientes
m = 3;

% Demanda diaria por cliente y día (suponiendo una semana y 3 clientes)
demand = [| 750,  850, 900,
          | 730,  870, 910, 
          | 720, 880,  920, 
          | 710,  890, 930, 
          | 700,  900, 940, 
          | 690, 910,  950
          |];



% Costos de producción (Nuclear, Hidroeléctrica, Térmica)
costs = [50, 20, 30]; 

% Capacidad diaria (Nuclear, Hidroeléctrica, Térmica)
capacities = [1100, 350, 600];

% Pago individual por cliente por MW (4 clientes)
Ps = [60, 55, 53]; 

% Porcentaje mínimo de demanda a cubrir
min_demand_percentage = 0.50;

% Porcentaje máximo de capacidad para hidroeléctrica
hydro_max_percentage = 0.80;

% Días consecutivos máximos a ese porcentaje
hydro_max_consecutive_days = 1;
